
  25    0


   0  13 2 3 4 5 8 9 10 11 12 21 22 23 24 
  10   4 16 15 7 6 
   3   4 20 19 13 7 
   2   3 18 14 6 
   1   2 15 6 
   4   1 13 
   6   1 14 
  10   1 16 
   7   1 17 
   5   1 15 
   3   1 14 
  10   1 13 
   8   1 25
   8   1 25
   1   1 25
   4   1 25
   6   1 25
   9   1 25
   9   1 25
   9   1 25
   4   1 25
   1   1 25
   5   1 25
   2   1 25
   0   0 
